networks/zoo_36_245/zoo_36_245-lower.txt
Number of groups: 24
Flow 1: {1 12 0} {12 5 0} {5 23 0} 
Flow 8: {2 12 0} {12 8 0} 
Flow 10: {11 10 0} 
Flow 21: {3 11 0} {11 16 0} {16 9 0} {9 27 0} 
Flow 22: {3 10 0} {10 28 0} 
Flow 32: {4 12 0} {12 7 0} {7 25 0} 
Flow 41: {5 12 0} {12 1 0} {1 19 0} 
Flow 59: {6 12 0} {12 11 0} {11 29 0} 
Flow 67: {7 6 0} {6 8 0} {8 26 0} 
Flow 74: {7 12 0} {12 16 0} {16 15 0} {15 33 0} 
Flow 79: {8 12 0} {12 2 0} {2 20 0} 
Flow 83: {8 6 0} {6 7 0} 
Flow 104: {9 16 0} {16 13 0} {13 31 0} 
Flow 109: {9 18 0} {18 36 0} 
Flow 112: {10 3 0} {3 21 0} 
Flow 119: {10 11 0} {11 12 0} {12 30 0} 
Flow 145: {12 4 0} {4 22 0} 
Flow 175: {13 16 0} {16 18 0} 
Flow 178: {14 16 0} {16 11 0} {11 3 0} 
Flow 198: {15 16 0} {16 34 0} 
Flow 213: {16 14 0} {14 32 0} 
Flow 221: {17 16 0} {16 12 0} {12 6 0} {6 24 0} 
Flow 238: {18 9 0} 
Flow 245: {18 16 0} {16 17 0} {17 35 0} 
Time taken running everything: 1 seconds
