networks/zoo_36_245/zoo_36_245-lower.sol
<?xml version = "1.0" encoding="UTF-8" standalone="yes"?>
<CPLEXSolution version="1.2">
 <header
   problemName="networks/zoo_36_245/zoo_36_245-lower.lp"
   solutionName="incumbent"
   solutionIndex="-1"
   objectiveValue="18"
   solutionTypeValue="3"
   solutionTypeString="primal"
   solutionStatusValue="101"
   solutionStatusString="integer optimal solution"
   solutionMethodString="mip"
   primalFeasible="1"
   dualFeasible="1"
   MIPNodes="0"
   MIPIterations="0"
   writeLevel="3"/>
 <quality
   epInt="1.0000000000000001e-05"
   epRHS="9.9999999999999995e-07"
   maxIntInfeas="0"
   maxPrimalInfeas="0"
   maxX="1"
   maxSlack="1"/>
 <variables>
  <variable name="Y(1,5)" index="4" value="1"/>
  <variable name="Y(2,11)" index="46" value="1"/>
  <variable name="Y(3,12)" index="83" value="1"/>
  <variable name="Y(4,1)" index="108" value="1"/>
  <variable name="Y(5,3)" index="146" value="1"/>
  <variable name="Y(7,7)" index="222" value="1"/>
  <variable name="Y(8,8)" index="259" value="1"/>
  <variable name="Y(9,9)" index="296" value="1"/>
  <variable name="Y(10,10)" index="333" value="1"/>
  <variable name="Y(13,15)" index="446" value="1"/>
  <variable name="Y(14,16)" index="483" value="1"/>
  <variable name="Y(15,18)" index="521" value="1"/>
  <variable name="Y(17,2)" index="577" value="1"/>
  <variable name="Y(27,17)" index="952" value="1"/>
  <variable name="Y(44,4)" index="1551" value="1"/>
  <variable name="Y(45,6)" index="1589" value="1"/>
  <variable name="Y(52,13)" index="1848" value="1"/>
  <variable name="Y(53,14)" index="1885" value="1"/>
  <variable name="X(1,12,1)" index="8820" value="1"/>
  <variable name="X(1,19,4)" index="9068" value="1"/>
  <variable name="X(2,12,4)" index="9313" value="1"/>
  <variable name="X(2,20,17)" index="9571" value="1"/>
  <variable name="X(3,10,22)" index="9821" value="1"/>
  <variable name="X(3,11,16)" index="10060" value="1"/>
  <variable name="X(3,21,5)" index="10294" value="1"/>
  <variable name="X(4,12,29)" index="10563" value="1"/>
  <variable name="X(4,22,44)" index="10823" value="1"/>
  <variable name="X(5,12,41)" index="11065" value="1"/>
  <variable name="X(5,23,1)" index="11270" value="1"/>
  <variable name="X(6,7,83)" index="11597" value="1"/>
  <variable name="X(6,8,67)" index="11826" value="1"/>
  <variable name="X(6,12,58)" index="12062" value="1"/>
  <variable name="X(6,24,45)" index="12294" value="1"/>
  <variable name="X(7,6,66)" index="12560" value="1"/>
  <variable name="X(7,12,61)" index="12800" value="1"/>
  <variable name="X(7,25,7)" index="12991" value="1"/>
  <variable name="X(8,6,82)" index="13311" value="1"/>
  <variable name="X(8,12,78)" index="13552" value="1"/>
  <variable name="X(8,26,8)" index="13727" value="1"/>
  <variable name="X(9,16,93)" index="14057" value="1"/>
  <variable name="X(9,18,109)" index="14318" value="1"/>
  <variable name="X(9,27,9)" index="14463" value="1"/>
  <variable name="X(10,3,112)" index="14811" value="1"/>
  <variable name="X(10,11,110)" index="15054" value="1"/>
  <variable name="X(10,28,10)" index="15199" value="1"/>
  <variable name="X(11,3,5)" index="15439" value="1"/>
  <variable name="X(11,10,10)" index="15689" value="1"/>
  <variable name="X(11,12,16)" index="15940" value="1"/>
  <variable name="X(11,16,21)" index="16190" value="1"/>
  <variable name="X(11,29,2)" index="16416" value="1"/>
  <variable name="X(12,1,4)" index="16663" value="1"/>
  <variable name="X(12,2,17)" index="16921" value="1"/>
  <variable name="X(12,4,44)" index="17193" value="1"/>
  <variable name="X(12,5,1)" index="17395" value="1"/>
  <variable name="X(12,6,45)" index="17684" value="1"/>
  <variable name="X(12,7,7)" index="17891" value="1"/>
  <variable name="X(12,8,8)" index="18137" value="1"/>
  <variable name="X(12,11,2)" index="18376" value="1"/>
  <variable name="X(12,16,9)" index="18628" value="1"/>
  <variable name="X(12,30,3)" index="18867" value="1"/>
  <variable name="X(13,16,159)" index="19268" value="1"/>
  <variable name="X(13,31,52)" index="19406" value="1"/>
  <variable name="X(14,16,176)" index="19775" value="1"/>
  <variable name="X(14,32,53)" index="19897" value="1"/>
  <variable name="X(15,16,191)" index="20280" value="1"/>
  <variable name="X(15,33,13)" index="20347" value="1"/>
  <variable name="X(16,9,9)" index="20588" value="1"/>
  <variable name="X(16,11,95)" index="20919" value="1"/>
  <variable name="X(16,12,93)" index="21162" value="1"/>
  <variable name="X(16,13,52)" index="21366" value="1"/>
  <variable name="X(16,14,53)" index="21612" value="1"/>
  <variable name="X(16,15,13)" index="21817" value="1"/>
  <variable name="X(16,17,27)" index="22076" value="1"/>
  <variable name="X(16,18,15)" index="22309" value="1"/>
  <variable name="X(16,34,14)" index="22553" value="1"/>
  <variable name="X(17,16,217)" index="23001" value="1"/>
  <variable name="X(17,35,27)" index="23056" value="1"/>
  <variable name="X(18,9,238)" index="23512" value="1"/>
  <variable name="X(18,16,232)" index="23751" value="1"/>
  <variable name="X(18,36,15)" index="23779" value="1"/>
 </variables>
</CPLEXSolution>
